\ LP format - for model browsing. Use MPS format to capture full model detail.
Minimize
  0 B8(0) + 0 B13(0) + 0 B16(0) + 0 B17(0) + 0 B18(0) + 0 B20(0) + 0 B21(0)
   + 0 B23(0) + I32(1)
Subject To
 c0: 32 B0(12) + I24(14) - 1e+07 B33(5) >= -9.99952e+06
 c1: 32 B0(12) + I24(14) - 1e+07 B33(5) <= 480
 c2: 24 B1(12) + I25(14) - 1e+07 B34(5) >= -9.99952e+06
 c3: 24 B1(12) + I25(14) - 1e+07 B34(5) <= 480
 c4: 21 B4(12) + I28(14) - 1e+07 B35(5) >= -9.99952e+06
 c5: 21 B4(12) + I28(14) - 1e+07 B35(5) <= 480
 c6: 65 B5(12) + I29(14) - 1e+07 B36(5) >= -9.99952e+06
 c7: 65 B5(12) + I29(14) - 1e+07 B36(5) <= 480
 c8: B33(5) >= 0
 c9: B34(5) >= 0
 c10: B35(5) >= 0
 c11: B36(5) >= 0
 c12: B0(12) + B1(12) = 1
 c13: B2(12) + B3(12) = 1
 c14: B4(12) + B5(12) = 1
 c15: B6(12) + B7(12) = 1
 c16: - 1e+07 B0(12) + I24(14) <= 0
 c17: - 1e+07 B1(12) + I25(14) <= 0
 c18: - 1e+07 B2(12) + I26(12) <= 0
 c19: - 1e+07 B3(12) + I27(12) <= 0
 c20: - 1e+07 B4(12) + I28(14) <= 0
 c21: - 1e+07 B5(12) + I29(14) <= 0
 c22: - 1e+07 B6(12) + I30(12) <= 0
 c23: - 1e+07 B7(12) + I31(12) <= 0
 c24: - 25 B2(12) - 37 B3(12) + I24(14) + I25(14) - I26(12) - I27(12) >= 0
 c25: - 45 B6(12) - 65 B7(12) + I28(14) + I29(14) - I30(12) - I31(12) >= 0
 c26: - 1e+07 B0(12) - 1e+07 B2(12) + 1e+07 B9(4) - I24(14) + I26(12)
   >= -1.9999708e+07
 c27: - 1e+07 B0(12) - 1e+07 B2(12) - 1e+07 B9(4) + I24(14) - I26(12)
   >= -2.9999915e+07
 c28: - 1e+07 B1(12) - 1e+07 B3(12) + 1e+07 B9(4) - I25(14) + I27(12)
   >= -1.9999816e+07
 c29: - 1e+07 B1(12) - 1e+07 B3(12) - 1e+07 B9(4) + I25(14) - I27(12)
   >= -2.9999798e+07
 c30: - 1e+07 B0(12) - 1e+07 B4(12) + 1e+07 B10(4) - I24(14) + I28(14)
   >= -1.9999796e+07
 c31: - 1e+07 B0(12) - 1e+07 B4(12) - 1e+07 B10(4) + I24(14) - I28(14)
   >= -2.9999799e+07
 c32: - 1e+07 B1(12) - 1e+07 B5(12) + 1e+07 B10(4) - I25(14) + I29(14)
   >= -1.9999806e+07
 c33: - 1e+07 B1(12) - 1e+07 B5(12) - 1e+07 B10(4) + I25(14) - I29(14)
   >= -2.9999823e+07
 c34: - 1e+07 B0(12) - 1e+07 B6(12) + 1e+07 B11(4) - I24(14) + I30(12)
   >= -1.9999823e+07
 c35: - 1e+07 B0(12) - 1e+07 B6(12) - 1e+07 B11(4) + I24(14) - I30(12)
   >= -2.9999787e+07
 c36: - 1e+07 B1(12) - 1e+07 B7(12) + 1e+07 B11(4) - I25(14) + I31(12)
   >= -1.9999889e+07
 c37: - 1e+07 B1(12) - 1e+07 B7(12) - 1e+07 B11(4) + I25(14) - I31(12)
   >= -2.9999853e+07
 c38: - 1e+07 B0(12) - 1e+07 B2(12) + 1e+07 B12(4) + I24(14) - I26(12)
   >= -1.9999915e+07
 c39: - 1e+07 B0(12) - 1e+07 B2(12) - 1e+07 B12(4) - I24(14) + I26(12)
   >= -2.9999708e+07
 c40: - 1e+07 B1(12) - 1e+07 B3(12) + 1e+07 B12(4) + I25(14) - I27(12)
   >= -1.9999798e+07
 c41: - 1e+07 B1(12) - 1e+07 B3(12) - 1e+07 B12(4) - I25(14) + I27(12)
   >= -2.9999816e+07
 c42: - 1e+07 B2(12) - 1e+07 B4(12) + 1e+07 B14(4) - I26(12) + I28(14)
   >= -1.9999911e+07
 c43: - 1e+07 B2(12) - 1e+07 B4(12) - 1e+07 B14(4) + I26(12) - I28(14)
   >= -2.9999783e+07
 c44: - 1e+07 B3(12) - 1e+07 B5(12) + 1e+07 B14(4) - I27(12) + I29(14)
   >= -1.999981e+07
 c45: - 1e+07 B3(12) - 1e+07 B5(12) - 1e+07 B14(4) + I27(12) - I29(14)
   >= -2.999975e+07
 c46: - 1e+07 B2(12) - 1e+07 B6(12) + 1e+07 B15(4) - I26(12) + I30(12)
   >= -1.999984e+07
 c47: - 1e+07 B2(12) - 1e+07 B6(12) - 1e+07 B15(4) + I26(12) - I30(12)
   >= -2.9999922e+07
 c48: - 1e+07 B3(12) - 1e+07 B7(12) + 1e+07 B15(4) - I27(12) + I31(12)
   >= -1.9999819e+07
 c49: - 1e+07 B3(12) - 1e+07 B7(12) - 1e+07 B15(4) + I27(12) - I31(12)
   >= -2.999976e+07
 c50: - 1e+07 B4(12) - 1e+07 B6(12) + 1e+07 B19(4) - I28(14) + I30(12)
   >= -1.9999727e+07
 c51: - 1e+07 B4(12) - 1e+07 B6(12) - 1e+07 B19(4) + I28(14) - I30(12)
   >= -2.9999895e+07
 c52: - 1e+07 B5(12) - 1e+07 B7(12) + 1e+07 B19(4) - I29(14) + I31(12)
   >= -1.9999875e+07
 c53: - 1e+07 B5(12) - 1e+07 B7(12) - 1e+07 B19(4) + I29(14) - I31(12)
   >= -2.999969e+07
 c54: - 1e+07 B4(12) - 1e+07 B6(12) + 1e+07 B22(4) + I28(14) - I30(12)
   >= -1.9999895e+07
 c55: - 1e+07 B4(12) - 1e+07 B6(12) - 1e+07 B22(4) - I28(14) + I30(12)
   >= -2.9999727e+07
 c56: - 1e+07 B5(12) - 1e+07 B7(12) + 1e+07 B22(4) + I29(14) - I31(12)
   >= -1.999969e+07
 c57: - 1e+07 B5(12) - 1e+07 B7(12) - 1e+07 B22(4) - I29(14) + I31(12)
   >= -2.9999875e+07
 c58: I24(14) >= 0
 c59: I25(14) >= 0
 c60: - 480 B2(12) + I26(12) >= 0
 c61: I26(12) >= 0
 c62: - 480 B3(12) + I27(12) >= 0
 c63: I27(12) >= 0
 c64: I28(14) >= 0
 c65: I29(14) >= 0
 c66: - 480 B6(12) + I30(12) >= 0
 c67: I30(12) >= 0
 c68: - 480 B7(12) + I31(12) >= 0
 c69: I31(12) >= 0
 qc0: I32(1) + 448 B33(5) + 456 B34(5) + 459 B35(5) + 415 B36(5) + [
   - I24(14) * B33(5) - I25(14) * B34(5) - I28(14) * B35(5)
   - I29(14) * B36(5) ] >= 0
Bounds
Binaries
 B0(12) B1(12) B2(12) B3(12) B4(12) B5(12) B6(12) B7(12) B8(0) B9(4) B10(4)
 B11(4) B12(4) B13(0) B14(4) B15(4) B16(0) B17(0) B18(0) B19(4) B20(0)
 B21(0) B22(4) B23(0) B33(5) B34(5) B35(5) B36(5)
Generals
 I24(14) I25(14) I26(12) I27(12) I28(14) I29(14) I30(12) I31(12) I32(1)
End
